# Solution for model network_DEA_CRS
# Objective value = 2.0789333845468988e-01
v_0 1.1683328780409331e-08
v_1 3.3017970646415664e-08
v_2 1e-09
u_0 -1.1565909447706857e-09
u_1 2.0959192704993853e-09
w_0 1.3995394285599131e-09
w_1 2.3794731853191150e-09
w0_0 1.2095459774777119e-01
w0_1 1.1023000566669745e-01
u0_0 0
